p cnf 1254 1448
19 8 37 39 0
19 8 37 -39 0
-37 -10 38 40 0
-37 -10 38 -40 0
-38 9 -11 41 0
-38 9 -11 -41 0
-20 14 16 34 0
3 -27 -24 -2 0
-4 28 42 45 0
-4 28 42 -45 0
-42 21 43 46 0
-42 21 43 -46 0
-43 -8 44 47 0
-43 -8 44 -47 0
-44 33 18 48 0
-44 33 18 -48 0
-4 28 49 52 0
-4 28 49 -52 0
-49 -21 50 53 0
-49 -21 50 -53 0
-50 8 51 54 0
-50 8 51 -54 0
-51 -18 -33 55 0
-51 -18 -33 -55 0
-4 21 56 59 0
-4 21 56 -59 0
-56 33 57 60 0
-56 33 57 -60 0
-57 8 58 61 0
-57 8 58 -61 0
-58 -18 28 62 0
-58 -18 28 -62 0
8 4 63 66 0
8 4 63 -66 0
-63 -21 64 67 0
-63 -21 64 -67 0
-64 -33 65 68 0
-64 -33 65 -68 0
-65 -18 -28 69 0
-65 -18 -28 -69 0
-19 14 70 73 0
-19 14 70 -73 0
-70 1 71 74 0
-70 1 71 -74 0
-71 -25 72 75 0
-71 -25 72 -75 0
-72 7 -22 76 0
-72 7 -22 -76 0
25 -1 77 80 0
25 -1 77 -80 0
-77 19 78 81 0
-77 19 78 -81 0
-78 14 79 82 0
-78 14 79 -82 0
-79 -22 -7 83 0
-79 -22 -7 -83 0
-13 12 84 88 0
-13 12 84 -88 0
-84 36 85 89 0
-84 36 85 -89 0
-85 -1 86 90 0
-85 -1 86 -90 0
-86 32 87 91 0
-86 32 87 -91 0
-87 5 -34 92 0
-87 5 -34 -92 0
32 5 93 97 0
32 5 93 -97 0
-93 -1 94 98 0
-93 -1 94 -98 0
-94 34 95 99 0
-94 34 95 -99 0
-95 -36 96 100 0
-95 -36 96 -100 0
-96 12 -13 101 0
-96 12 -13 -101 0
-18 35 29 102 0
-18 35 29 -102 0
-22 24 21 103 0
-22 24 21 -103 0
26 -2 104 106 0
26 -2 104 -106 0
-104 -23 105 107 0
-104 -23 105 -107 0
-105 -4 13 108 0
-105 -4 13 -108 0
10 32 -15 -27 0
23 -2 109 111 0
23 -2 109 -111 0
-109 26 110 112 0
-109 26 110 -112 0
-110 4 13 113 0
-110 4 13 -113 0
5 12 114 118 0
5 12 114 -118 0
-114 34 115 119 0
-114 34 115 -119 0
-115 32 116 120 0
-115 32 116 -120 0
-116 13 117 121 0
-116 13 117 -121 0
-117 36 -1 122 0
-117 36 -1 -122 0
-1 22 123 126 0
-1 22 123 -126 0
-123 -19 124 127 0
-123 -19 124 -127 0
-124 -7 125 128 0
-124 -7 125 -128 0
-125 -14 -25 129 0
-125 -14 -25 -129 0
-34 36 130 134 0
-34 36 130 -134 0
-130 1 131 135 0
-130 1 131 -135 0
-131 32 132 136 0
-131 32 132 -136 0
-132 -13 133 137 0
-132 -13 133 -137 0
-133 -12 5 138 0
-133 -12 5 -138 0
-14 -25 139 142 0
-14 -25 139 -142 0
-139 19 140 143 0
-139 19 140 -143 0
-140 7 141 144 0
-140 7 141 -144 0
-141 1 -22 145 0
-141 1 -22 -145 0
-5 -36 146 150 0
-5 -36 146 -150 0
-146 34 147 151 0
-146 34 147 -151 0
-147 -1 148 152 0
-147 -1 148 -152 0
-148 -32 149 153 0
-148 -32 149 -153 0
-149 -13 12 154 0
-149 -13 12 -154 0
-18 -29 -35 155 0
-18 -29 -35 -155 0
7 -14 156 159 0
7 -14 156 -159 0
-156 -25 157 160 0
-156 -25 157 -160 0
-157 22 158 161 0
-157 22 158 -161 0
-158 -1 19 162 0
-158 -1 19 -162 0
-10 9 163 165 0
-10 9 163 -165 0
-163 -8 164 166 0
-163 -8 164 -166 0
-164 19 11 167 0
-164 19 11 -167 0
-32 -34 168 172 0
-32 -34 168 -172 0
-168 -5 169 173 0
-168 -5 169 -173 0
-169 -36 170 174 0
-169 -36 170 -174 0
-170 12 171 175 0
-170 12 171 -175 0
-171 -1 13 176 0
-171 -1 13 -176 0
-33 -21 177 180 0
-33 -21 177 -180 0
-177 -8 178 181 0
-177 -8 178 -181 0
-178 -18 179 182 0
-178 -18 179 -182 0
-179 28 4 183 0
-179 28 4 -183 0
-1 -19 184 187 0
-1 -19 184 -187 0
-184 -7 185 188 0
-184 -7 185 -188 0
-185 14 186 189 0
-185 14 186 -189 0
-186 -25 -22 190 0
-186 -25 -22 -190 0
-20 28 -25 30 0
12 34 191 195 0
12 34 191 -195 0
-191 -36 192 196 0
-191 -36 192 -196 0
-192 5 193 197 0
-192 5 193 -197 0
-193 32 194 198 0
-193 32 194 -198 0
-194 13 1 199 0
-194 13 1 -199 0
27 24 -2 3 0
13 34 200 204 0
13 34 200 -204 0
-200 32 201 205 0
-200 32 201 -205 0
-201 1 202 206 0
-201 1 202 -206 0
-202 -36 203 207 0
-202 -36 203 -207 0
-203 -5 -12 208 0
-203 -5 -12 -208 0
-20 25 -28 30 0
26 23 209 211 0
26 23 209 -211 0
-209 2 210 212 0
-209 2 210 -212 0
-210 -4 13 213 0
-210 -4 13 -213 0
-32 15 10 -27 0
-9 -19 214 216 0
-9 -19 214 -216 0
-214 -8 215 217 0
-214 -8 215 -217 0
-215 11 -10 218 0
-215 11 -10 -218 0
21 -18 219 222 0
21 -18 219 -222 0
-219 -4 220 223 0
-219 -4 220 -223 0
-220 -28 221 224 0
-220 -28 221 -224 0
-221 -33 8 225 0
-221 -33 8 -225 0
10 9 226 228 0
10 9 226 -228 0
-226 11 227 229 0
-226 11 227 -229 0
-227 -19 -8 230 0
-227 -19 -8 -230 0
12 34 231 235 0
12 34 231 -235 0
-231 1 232 236 0
-231 1 232 -236 0
-232 -13 233 237 0
-232 -13 233 -237 0
-233 -5 234 238 0
-233 -5 234 -238 0
-234 32 -36 239 0
-234 32 -36 -239 0
22 25 240 243 0
22 25 240 -243 0
-240 7 241 244 0
-240 7 241 -244 0
-241 -1 242 245 0
-241 -1 242 -245 0
-242 19 14 246 0
-242 19 14 -246 0
33 8 247 250 0
33 8 247 -250 0
-247 -4 248 251 0
-247 -4 248 -251 0
-248 -21 249 252 0
-248 -21 249 -252 0
-249 28 18 253 0
-249 28 18 -253 0
12 -34 254 258 0
12 -34 254 -258 0
-254 -5 255 259 0
-254 -5 255 -259 0
-255 1 256 260 0
-255 1 256 -260 0
-256 32 257 261 0
-256 32 257 -261 0
-257 13 -36 262 0
-257 13 -36 -262 0
-28 8 263 266 0
-28 8 263 -266 0
-263 -18 264 267 0
-263 -18 264 -267 0
-264 21 265 268 0
-264 21 265 -268 0
-265 33 4 269 0
-265 33 4 -269 0
23 13 270 272 0
23 13 270 -272 0
-270 4 271 273 0
-270 4 271 -273 0
-271 2 -26 274 0
-271 2 -26 -274 0
-8 10 275 277 0
-8 10 275 -277 0
-275 -9 276 278 0
-275 -9 276 -278 0
-276 -19 -11 279 0
-276 -19 -11 -279 0
-18 33 280 283 0
-18 33 280 -283 0
-280 21 281 284 0
-280 21 281 -284 0
-281 -4 282 285 0
-281 -4 282 -285 0
-282 -28 -8 286 0
-282 -28 -8 -286 0
1 -7 287 290 0
1 -7 287 -290 0
-287 25 288 291 0
-287 25 288 -291 0
-288 -14 289 292 0
-288 -14 289 -292 0
-289 22 -19 293 0
-289 22 -19 -293 0
-18 -21 294 297 0
-18 -21 294 -297 0
-294 4 295 298 0
-294 4 295 -298 0
-295 33 296 299 0
-295 33 296 -299 0
-296 -8 -28 300 0
-296 -8 -28 -300 0
34 -1 301 305 0
34 -1 301 -305 0
-301 -13 302 306 0
-301 -13 302 -306 0
-302 -32 303 307 0
-302 -32 303 -307 0
-303 -5 304 308 0
-303 -5 304 -308 0
-304 -12 36 309 0
-304 -12 36 -309 0
13 -12 310 314 0
13 -12 310 -314 0
-310 -5 311 315 0
-310 -5 311 -315 0
-311 -32 312 316 0
-311 -32 312 -316 0
-312 -36 313 317 0
-312 -36 313 -317 0
-313 -34 1 318 0
-313 -34 1 -318 0
12 1 319 323 0
12 1 319 -323 0
-319 34 320 324 0
-319 34 320 -324 0
-320 13 321 325 0
-320 13 321 -325 0
-321 -32 322 326 0
-321 -32 322 -326 0
-322 -5 -36 327 0
-322 -5 -36 -327 0
-34 -20 -16 14 0
-8 -33 328 331 0
-8 -33 328 -331 0
-328 21 329 332 0
-328 21 329 -332 0
-329 -4 330 333 0
-329 -4 330 -333 0
-330 -28 18 334 0
-330 -28 18 -334 0
11 -31 335 336 0
11 -31 335 -336 0
11 -31 -335 337 0
11 -31 -335 -337 0
-3 27 -2 -24 0
-11 19 338 340 0
-11 19 338 -340 0
-338 -8 339 341 0
-338 -8 339 -341 0
-339 9 10 342 0
-339 9 10 -342 0
21 33 343 346 0
21 33 343 -346 0
-343 8 344 347 0
-343 8 344 -347 0
-344 18 345 348 0
-344 18 345 -348 0
-345 4 28 349 0
-345 4 28 -349 0
12 5 350 354 0
12 5 350 -354 0
-350 36 351 355 0
-350 36 351 -355 0
-351 -13 352 356 0
-351 -13 352 -356 0
-352 1 353 357 0
-352 1 353 -357 0
-353 -34 -32 358 0
-353 -34 -32 -358 0
8 28 359 362 0
8 28 359 -362 0
-359 21 360 363 0
-359 21 360 -363 0
-360 -33 361 364 0
-360 -33 361 -364 0
-361 -18 4 365 0
-361 -18 4 -365 0
-12 34 366 370 0
-12 34 366 -370 0
-366 13 367 371 0
-366 13 367 -371 0
-367 1 368 372 0
-367 1 368 -372 0
-368 -32 369 373 0
-368 -32 369 -373 0
-369 -5 36 374 0
-369 -5 36 -374 0
1 34 375 379 0
1 34 375 -379 0
-375 -13 376 380 0
-375 -13 376 -380 0
-376 5 377 381 0
-376 5 377 -381 0
-377 32 378 382 0
-377 32 378 -382 0
-378 36 12 383 0
-378 36 12 -383 0
-32 -1 384 388 0
-32 -1 384 -388 0
-384 -34 385 389 0
-384 -34 385 -389 0
-385 -36 386 390 0
-385 -36 386 -390 0
-386 -13 387 391 0
-386 -13 387 -391 0
-387 12 5 392 0
-387 12 5 -392 0
-7 -19 393 396 0
-7 -19 393 -396 0
-393 -14 394 397 0
-393 -14 394 -397 0
-394 -22 395 398 0
-394 -22 395 -398 0
-395 -25 1 399 0
-395 -25 1 -399 0
10 27 15 32 0
-31 29 6 400 0
-31 29 6 -400 0
17 36 -26 401 0
17 36 -26 -401 0
5 -34 402 406 0
5 -34 402 -406 0
-402 32 403 407 0
-402 32 403 -407 0
-403 12 404 408 0
-403 12 404 -408 0
-404 -13 405 409 0
-404 -13 405 -409 0
-405 1 -36 410 0
-405 1 -36 -410 0
-33 -4 411 414 0
-33 -4 411 -414 0
-411 18 412 415 0
-411 18 412 -415 0
-412 21 413 416 0
-412 21 413 -416 0
-413 28 8 417 0
-413 28 8 -417 0
23 -33 -12 418 0
23 -33 -12 -418 0
-29 31 6 419 0
-29 31 6 -419 0
-30 -20 25 28 0
-27 -24 -3 2 0
-36 1 420 424 0
-36 1 420 -424 0
-420 -32 421 425 0
-420 -32 421 -425 0
-421 34 422 426 0
-421 34 422 -426 0
-422 5 423 427 0
-422 5 423 -427 0
-423 13 -12 428 0
-423 13 -12 -428 0
7 -22 429 432 0
7 -22 429 -432 0
-429 25 430 433 0
-429 25 430 -433 0
-430 -14 431 434 0
-430 -14 431 -434 0
-431 1 -19 435 0
-431 1 -19 -435 0
-1 -19 436 439 0
-1 -19 436 -439 0
-436 22 437 440 0
-436 22 437 -440 0
-437 -7 438 441 0
-437 -7 438 -441 0
-438 25 14 442 0
-438 25 14 -442 0
5 32 443 447 0
5 32 443 -447 0
-443 1 444 448 0
-443 1 444 -448 0
-444 36 445 449 0
-444 36 445 -449 0
-445 -12 446 450 0
-445 -12 446 -450 0
-446 13 34 451 0
-446 13 34 -451 0
-31 -29 -6 452 0
-31 -29 -6 -452 0
34 -5 453 457 0
34 -5 453 -457 0
-453 36 454 458 0
-453 36 454 -458 0
-454 1 455 459 0
-454 1 455 -459 0
-455 32 456 460 0
-455 32 456 -460 0
-456 -13 -12 461 0
-456 -13 -12 -461 0
34 16 20 -14 0
-1 34 462 466 0
-1 34 462 -466 0
-462 -5 463 467 0
-462 -5 463 -467 0
-463 -12 464 468 0
-463 -12 464 -468 0
-464 -36 465 469 0
-464 -36 465 -469 0
-465 -32 13 470 0
-465 -32 13 -470 0
9 11 471 473 0
9 11 471 -473 0
-471 8 472 474 0
-471 8 472 -474 0
-472 19 10 475 0
-472 19 10 -475 0
34 -1 476 480 0
34 -1 476 -480 0
-476 -12 477 481 0
-476 -12 477 -481 0
-477 -32 478 482 0
-477 -32 478 -482 0
-478 -36 479 483 0
-478 -36 479 -483 0
-479 -13 5 484 0
-479 -13 5 -484 0
-12 -36 485 489 0
-12 -36 485 -489 0
-485 -5 486 490 0
-485 -5 486 -490 0
-486 1 487 491 0
-486 1 487 -491 0
-487 -34 488 492 0
-487 -34 488 -492 0
-488 32 -13 493 0
-488 32 -13 -493 0
25 -1 494 497 0
25 -1 494 -497 0
-494 -14 495 498 0
-494 -14 495 -498 0
-495 7 496 499 0
-495 7 496 -499 0
-496 -22 19 500 0
-496 -22 19 -500 0
-34 -12 501 505 0
-34 -12 501 -505 0
-501 5 502 506 0
-501 5 502 -506 0
-502 1 503 507 0
-502 1 503 -507 0
-503 13 504 508 0
-503 13 504 -508 0
-504 36 -32 509 0
-504 36 -32 -509 0
-13 23 510 512 0
-13 23 510 -512 0
-510 2 511 513 0
-510 2 511 -513 0
-511 -4 -26 514 0
-511 -4 -26 -514 0
36 12 515 519 0
36 12 515 -519 0
-515 -5 516 520 0
-515 -5 516 -520 0
-516 34 517 521 0
-516 34 517 -521 0
-517 -32 518 522 0
-517 -32 518 -522 0
-518 1 -13 523 0
-518 1 -13 -523 0
32 34 524 528 0
32 34 524 -528 0
-524 -5 525 529 0
-524 -5 525 -529 0
-525 -36 526 530 0
-525 -36 526 -530 0
-526 -12 527 531 0
-526 -12 527 -531 0
-527 -1 -13 532 0
-527 -1 -13 -532 0
-13 -4 533 535 0
-13 -4 533 -535 0
-533 23 534 536 0
-533 23 534 -536 0
-534 26 -2 537 0
-534 26 -2 -537 0
35 -30 -5 538 0
35 -30 -5 -538 0
5 -30 -35 539 0
5 -30 -35 -539 0
5 32 540 544 0
5 32 540 -544 0
-540 -36 541 545 0
-540 -36 541 -545 0
-541 -12 542 546 0
-541 -12 542 -546 0
-542 -34 543 547 0
-542 -34 543 -547 0
-543 1 13 548 0
-543 1 13 -548 0
-14 7 549 552 0
-14 7 549 -552 0
-549 1 550 553 0
-549 1 550 -553 0
-550 25 551 554 0
-550 25 551 -554 0
-551 22 19 555 0
-551 22 19 -555 0
-34 -36 556 560 0
-34 -36 556 -560 0
-556 32 557 561 0
-556 32 557 -561 0
-557 -5 558 562 0
-557 -5 558 -562 0
-558 -1 559 563 0
-558 -1 559 -563 0
-559 -13 12 564 0
-559 -13 12 -564 0
4 -13 565 567 0
4 -13 565 -567 0
-565 2 566 568 0
-565 2 566 -568 0
-566 -26 -23 569 0
-566 -26 -23 -569 0
-19 9 570 572 0
-19 9 570 -572 0
-570 -8 571 573 0
-570 -8 571 -573 0
-571 -10 -11 574 0
-571 -10 -11 -574 0
-15 -32 -10 -27 0
-14 -22 575 578 0
-14 -22 575 -578 0
-575 -19 576 579 0
-575 -19 576 -579 0
-576 -1 577 580 0
-576 -1 577 -580 0
-577 25 -7 581 0
-577 25 -7 -581 0
36 12 582 586 0
36 12 582 -586 0
-582 -34 583 587 0
-582 -34 583 -587 0
-583 -32 584 588 0
-583 -32 584 -588 0
-584 -5 585 589 0
-584 -5 585 -589 0
-585 13 1 590 0
-585 13 1 -590 0
-9 10 591 593 0
-9 10 591 -593 0
-591 8 592 594 0
-591 8 592 -594 0
-592 -11 19 595 0
-592 -11 19 -595 0
-7 19 596 599 0
-7 19 596 -599 0
-596 -25 597 600 0
-596 -25 597 -600 0
-597 14 598 601 0
-597 14 598 -601 0
-598 -1 22 602 0
-598 -1 22 -602 0
-32 36 603 607 0
-32 36 603 -607 0
-603 5 604 608 0
-603 5 604 -608 0
-604 13 605 609 0
-604 13 605 -609 0
-605 -1 606 610 0
-605 -1 606 -610 0
-606 -34 12 611 0
-606 -34 12 -611 0
8 28 612 615 0
8 28 612 -615 0
-612 4 613 616 0
-612 4 613 -616 0
-613 18 614 617 0
-613 18 614 -617 0
-614 -21 -33 618 0
-614 -21 -33 -618 0
-17 -15 -3 619 0
-17 -15 -3 -619 0
4 13 620 622 0
4 13 620 -622 0
-620 -2 621 623 0
-620 -2 621 -623 0
-621 -26 -23 624 0
-621 -26 -23 -624 0
-12 5 625 629 0
-12 5 625 -629 0
-625 -1 626 630 0
-625 -1 626 -630 0
-626 13 627 631 0
-626 13 627 -631 0
-627 32 628 632 0
-627 32 628 -632 0
-628 34 -36 633 0
-628 34 -36 -633 0
-23 12 -33 634 0
-23 12 -33 -634 0
9 6 7 16 0
35 18 -29 635 0
35 18 -29 -635 0
-9 19 636 638 0
-9 19 636 -638 0
-636 -8 637 639 0
-636 -8 637 -639 0
-637 10 11 640 0
-637 10 11 -640 0
4 21 641 644 0
4 21 641 -644 0
-641 28 642 645 0
-641 28 642 -645 0
-642 -8 643 646 0
-642 -8 643 -646 0
-643 18 -33 647 0
-643 18 -33 -647 0
22 24 -21 648 0
22 24 -21 -648 0
34 12 649 653 0
34 12 649 -653 0
-649 5 650 654 0
-649 5 650 -654 0
-650 -36 651 655 0
-650 -36 651 -655 0
-651 13 652 656 0
-651 13 652 -656 0
-652 -1 -32 657 0
-652 -1 -32 -657 0
-1 -36 658 662 0
-1 -36 658 -662 0
-658 13 659 663 0
-658 13 659 -663 0
-659 12 660 664 0
-659 12 660 -664 0
-660 5 661 665 0
-660 5 661 -665 0
-661 -34 32 666 0
-661 -34 32 -666 0
-18 -8 667 670 0
-18 -8 667 -670 0
-667 28 668 671 0
-667 28 668 -671 0
-668 -21 669 672 0
-668 -21 669 -672 0
-669 -4 33 673 0
-669 -4 33 -673 0
-10 -32 27 15 0
-23 -12 33 674 0
-23 -12 33 -674 0
20 14 16 -34 0
13 1 675 679 0
13 1 675 -679 0
-675 -34 676 680 0
-675 -34 676 -680 0
-676 -36 677 681 0
-676 -36 677 -681 0
-677 12 678 682 0
-677 12 678 -682 0
-678 -32 5 683 0
-678 -32 5 -683 0
4 21 684 687 0
4 21 684 -687 0
-684 -28 685 688 0
-684 -28 685 -688 0
-685 -8 686 689 0
-685 -8 686 -689 0
-686 18 33 690 0
-686 18 33 -690 0
-32 -1 691 695 0
-32 -1 691 -695 0
-691 -34 692 696 0
-691 -34 692 -696 0
-692 36 693 697 0
-692 36 693 -697 0
-693 13 694 698 0
-693 13 694 -698 0
-694 -5 -12 699 0
-694 -5 -12 -699 0
-4 2 700 702 0
-4 2 700 -702 0
-700 26 701 703 0
-700 26 701 -703 0
-701 -23 -13 704 0
-701 -23 -13 -704 0
1 36 705 709 0
1 36 705 -709 0
-705 -34 706 710 0
-705 -34 706 -710 0
-706 32 707 711 0
-706 32 707 -711 0
-707 -5 708 712 0
-707 -5 708 -712 0
-708 -13 12 713 0
-708 -13 12 -713 0
-21 -18 714 717 0
-21 -18 714 -717 0
-714 -4 715 718 0
-714 -4 715 -718 0
-715 33 716 719 0
-715 33 716 -719 0
-716 8 -28 720 0
-716 8 -28 -720 0
34 12 721 725 0
34 12 721 -725 0
-721 -13 722 726 0
-721 -13 722 -726 0
-722 -32 723 727 0
-722 -32 723 -727 0
-723 1 724 728 0
-723 1 724 -728 0
-724 5 -36 729 0
-724 5 -36 -729 0
17 -3 15 730 0
17 -3 15 -730 0
32 12 731 735 0
32 12 731 -735 0
-731 13 732 736 0
-731 13 732 -736 0
-732 -34 733 737 0
-732 -34 733 -737 0
-733 36 734 738 0
-733 36 734 -738 0
-734 1 5 739 0
-734 1 5 -739 0
23 -13 740 742 0
23 -13 740 -742 0
-740 4 741 743 0
-740 4 741 -743 0
-741 -2 -26 744 0
-741 -2 -26 -744 0
-16 20 34 14 0
-13 23 745 747 0
-13 23 745 -747 0
-745 26 746 748 0
-745 26 746 -748 0
-746 2 4 749 0
-746 2 4 -749 0
6 -16 -9 7 0
-27 -10 15 32 0
-34 -16 -14 20 0
32 34 750 754 0
32 34 750 -754 0
-750 -13 751 755 0
-750 -13 751 -755 0
-751 -12 752 756 0
-751 -12 752 -756 0
-752 5 753 757 0
-752 5 753 -757 0
-753 1 -36 758 0
-753 1 -36 -758 0
25 -1 759 762 0
25 -1 759 -762 0
-759 22 760 763 0
-759 22 760 -763 0
-760 7 761 764 0
-760 7 761 -764 0
-761 -19 -14 765 0
-761 -19 -14 -765 0
-6 -9 7 16 0
12 -32 766 770 0
12 -32 766 -770 0
-766 -34 767 771 0
-766 -34 767 -771 0
-767 -36 768 772 0
-767 -36 768 -772 0
-768 -13 769 773 0
-768 -13 769 -773 0
-769 1 -5 774 0
-769 1 -5 -774 0
-20 -34 -14 16 0
-28 -33 775 778 0
-28 -33 775 -778 0
-775 -18 776 779 0
-775 -18 776 -779 0
-776 -4 777 780 0
-776 -4 777 -780 0
-777 -8 -21 781 0
-777 -8 -21 -781 0
-19 -25 782 785 0
-19 -25 782 -785 0
-782 14 783 786 0
-782 14 783 -786 0
-783 -7 784 787 0
-783 -7 784 -787 0
-784 1 22 788 0
-784 1 22 -788 0
-13 -34 789 793 0
-13 -34 789 -793 0
-789 -1 790 794 0
-789 -1 790 -794 0
-790 -12 791 795 0
-790 -12 791 -795 0
-791 32 792 796 0
-791 32 792 -796 0
-792 -5 36 797 0
-792 -5 36 -797 0
5 30 35 798 0
5 30 35 -798 0
-33 -21 799 802 0
-33 -21 799 -802 0
-799 18 800 803 0
-799 18 800 -803 0
-800 4 801 804 0
-800 4 801 -804 0
-801 -8 -28 805 0
-801 -8 -28 -805 0
-24 27 3 2 0
-13 -32 806 810 0
-13 -32 806 -810 0
-806 -36 807 811 0
-806 -36 807 -811 0
-807 -1 808 812 0
-807 -1 808 -812 0
-808 -12 809 813 0
-808 -12 809 -813 0
-809 -5 -34 814 0
-809 -5 -34 -814 0
-21 18 815 818 0
-21 18 815 -818 0
-815 -4 816 819 0
-815 -4 816 -819 0
-816 -28 817 820 0
-816 -28 817 -820 0
-817 33 -8 821 0
-817 33 -8 -821 0
-11 31 822 823 0
-11 31 822 -823 0
-11 31 -822 824 0
-11 31 -822 -824 0
34 -13 825 829 0
34 -13 825 -829 0
-825 32 826 830 0
-825 32 826 -830 0
-826 -12 827 831 0
-826 -12 827 -831 0
-827 -1 828 832 0
-827 -1 828 -832 0
-828 5 36 833 0
-828 5 36 -833 0
-13 36 834 838 0
-13 36 834 -838 0
-834 34 835 839 0
-834 34 835 -839 0
-835 -12 836 840 0
-835 -12 836 -840 0
-836 1 837 841 0
-836 1 837 -841 0
-837 -32 5 842 0
-837 -32 5 -842 0
-1 12 843 847 0
-1 12 843 -847 0
-843 36 844 848 0
-843 36 844 -848 0
-844 13 845 849 0
-844 13 845 -849 0
-845 32 846 850 0
-845 32 846 -850 0
-846 -5 -34 851 0
-846 -5 -34 -851 0
-33 -21 852 855 0
-33 -21 852 -855 0
-852 28 853 856 0
-852 28 853 -856 0
-853 -8 854 857 0
-853 -8 854 -857 0
-854 18 -4 858 0
-854 18 -4 -858 0
-33 -18 859 862 0
-33 -18 859 -862 0
-859 -8 860 863 0
-859 -8 860 -863 0
-860 -28 861 864 0
-860 -28 861 -864 0
-861 21 4 865 0
-861 21 4 -865 0
30 -35 -5 866 0
30 -35 -5 -866 0
22 21 -24 867 0
22 21 -24 -867 0
8 21 868 871 0
8 21 868 -871 0
-868 -4 869 872 0
-868 -4 869 -872 0
-869 33 870 873 0
-869 33 870 -873 0
-870 -28 18 874 0
-870 -28 18 -874 0
19 1 875 878 0
19 1 875 -878 0
-875 -14 876 879 0
-875 -14 876 -879 0
-876 22 877 880 0
-876 22 877 -880 0
-877 -7 -25 881 0
-877 -7 -25 -881 0
25 1 882 885 0
25 1 882 -885 0
-882 -7 883 886 0
-882 -7 883 -886 0
-883 -14 884 887 0
-883 -14 884 -887 0
-884 19 -22 888 0
-884 19 -22 -888 0
20 30 -28 -25 0
5 -34 889 893 0
5 -34 889 -893 0
-889 -13 890 894 0
-889 -13 890 -894 0
-890 1 891 895 0
-890 1 891 -895 0
-891 -36 892 896 0
-891 -36 892 -896 0
-892 -12 -32 897 0
-892 -12 -32 -897 0
26 17 -36 898 0
26 17 -36 -898 0
13 34 899 903 0
13 34 899 -903 0
-899 -5 900 904 0
-899 -5 900 -904 0
-900 32 901 905 0
-900 32 901 -905 0
-901 -12 902 906 0
-901 -12 902 -906 0
-902 36 -1 907 0
-902 36 -1 -907 0
32 12 908 912 0
32 12 908 -912 0
-908 -13 909 913 0
-908 -13 909 -913 0
-909 -5 910 914 0
-909 -5 910 -914 0
-910 34 911 915 0
-910 34 911 -915 0
-911 -1 36 916 0
-911 -1 36 -916 0
-25 7 917 920 0
-25 7 917 -920 0
-917 14 918 921 0
-917 14 918 -921 0
-918 19 919 922 0
-918 19 919 -922 0
-919 1 22 923 0
-919 1 22 -923 0
-17 -36 -26 924 0
-17 -36 -26 -924 0
-15 3 17 925 0
-15 3 17 -925 0
29 -35 18 926 0
29 -35 18 -926 0
36 -34 927 931 0
36 -34 927 -931 0
-927 12 928 932 0
-927 12 928 -932 0
-928 -1 929 933 0
-928 -1 929 -933 0
-929 -32 930 934 0
-929 -32 930 -934 0
-930 -5 -13 935 0
-930 -5 -13 -935 0
13 -4 936 938 0
13 -4 936 -938 0
-936 23 937 939 0
-936 23 937 -939 0
-937 -26 -2 940 0
-937 -26 -2 -940 0
8 28 941 944 0
8 28 941 -944 0
-941 -21 942 945 0
-941 -21 942 -945 0
-942 4 943 946 0
-942 4 943 -946 0
-943 -18 33 947 0
-943 -18 33 -947 0
16 -9 -7 6 0
2 -3 27 24 0
36 -1 948 952 0
36 -1 948 -952 0
-948 5 949 953 0
-948 5 949 -953 0
-949 12 950 954 0
-949 12 950 -954 0
-950 34 951 955 0
-950 34 951 -955 0
-951 -13 -32 956 0
-951 -13 -32 -956 0
18 -28 957 960 0
18 -28 957 -960 0
-957 -33 958 961 0
-957 -33 958 -961 0
-958 4 959 962 0
-958 4 959 -962 0
-959 21 8 963 0
-959 21 8 -963 0
32 36 964 968 0
32 36 964 -968 0
-964 12 965 969 0
-964 12 965 -969 0
-965 1 966 970 0
-965 1 966 -970 0
-966 -5 967 971 0
-966 -5 967 -971 0
-967 34 13 972 0
-967 34 13 -972 0
20 25 28 30 0
32 36 973 977 0
32 36 973 -977 0
-973 -12 974 978 0
-973 -12 974 -978 0
-974 -5 975 979 0
-974 -5 975 -979 0
-975 -34 976 980 0
-975 -34 976 -980 0
-976 1 13 981 0
-976 1 13 -981 0
-6 29 31 982 0
-6 29 31 -982 0
-12 -5 983 987 0
-12 -5 983 -987 0
-983 1 984 988 0
-983 1 984 -988 0
-984 -36 985 989 0
-984 -36 985 -989 0
-985 -13 986 990 0
-985 -13 986 -990 0
-986 34 -32 991 0
-986 34 -32 -991 0
-25 -7 992 995 0
-25 -7 992 -995 0
-992 -1 993 996 0
-992 -1 993 -996 0
-993 -22 994 997 0
-993 -22 994 -997 0
-994 -14 19 998 0
-994 -14 19 -998 0
26 -17 36 999 0
26 -17 36 -999 0
-14 7 1000 1003 0
-14 7 1000 -1003 0
-1000 -19 1001 1004 0
-1000 -19 1001 -1004 0
-1001 -1 1002 1005 0
-1001 -1 1002 -1005 0
-1002 -25 -22 1006 0
-1002 -25 -22 -1006 0
-4 18 1007 1010 0
-4 18 1007 -1010 0
-1007 8 1008 1011 0
-1007 8 1008 -1011 0
-1008 -33 1009 1012 0
-1008 -33 1009 -1012 0
-1009 -21 -28 1013 0
-1009 -21 -28 -1013 0
5 32 1014 1018 0
5 32 1014 -1018 0
-1014 -34 1015 1019 0
-1014 -34 1015 -1019 0
-1015 -1 1016 1020 0
-1015 -1 1016 -1020 0
-1016 36 1017 1021 0
-1016 36 1017 -1021 0
-1017 13 -12 1022 0
-1017 13 -12 -1022 0
-7 22 1023 1026 0
-7 22 1023 -1026 0
-1023 25 1024 1027 0
-1023 25 1024 -1027 0
-1024 19 1025 1028 0
-1024 19 1025 -1028 0
-1025 -1 -14 1029 0
-1025 -1 -14 -1029 0
13 -5 1030 1034 0
13 -5 1030 -1034 0
-1030 -1 1031 1035 0
-1030 -1 1031 -1035 0
-1031 34 1032 1036 0
-1031 34 1032 -1036 0
-1032 12 1033 1037 0
-1032 12 1033 -1037 0
-1033 -36 32 1038 0
-1033 -36 32 -1038 0
9 6 -16 -7 0
18 -8 1039 1042 0
18 -8 1039 -1042 0
-1039 -21 1040 1043 0
-1039 -21 1040 -1043 0
-1040 4 1041 1044 0
-1040 4 1041 -1044 0
-1041 28 33 1045 0
-1041 28 33 -1045 0
-27 -3 -2 24 0
7 -25 1046 1049 0
7 -25 1046 -1049 0
-1046 14 1047 1050 0
-1046 14 1047 -1050 0
-1047 -19 1048 1051 0
-1047 -19 1048 -1051 0
-1048 22 -1 1052 0
-1048 22 -1 -1052 0
-16 7 -6 9 0
-19 10 1053 1055 0
-19 10 1053 -1055 0
-1053 9 1054 1056 0
-1053 9 1054 -1056 0
-1054 -11 8 1057 0
-1054 -11 8 -1057 0
23 33 12 1058 0
23 33 12 -1058 0
14 19 1059 1062 0
14 19 1059 -1062 0
-1059 7 1060 1063 0
-1059 7 1060 -1063 0
-1060 -22 1061 1064 0
-1060 -22 1061 -1064 0
-1061 25 1 1065 0
-1061 25 1 -1065 0
7 -22 1066 1069 0
7 -22 1066 -1069 0
-1066 19 1067 1070 0
-1066 19 1067 -1070 0
-1067 -25 1068 1071 0
-1067 -25 1068 -1071 0
-1068 -1 14 1072 0
-1068 -1 14 -1072 0
3 15 -17 1073 0
3 15 -17 -1073 0
-9 -11 1074 1076 0
-9 -11 1074 -1076 0
-1074 -10 1075 1077 0
-1074 -10 1075 -1077 0
-1075 8 -19 1078 0
-1075 8 -19 -1078 0
-4 -33 1079 1082 0
-4 -33 1079 -1082 0
-1079 -18 1080 1083 0
-1079 -18 1080 -1083 0
-1080 28 1081 1084 0
-1080 28 1081 -1084 0
-1081 -8 21 1085 0
-1081 -8 21 -1085 0
28 4 1086 1089 0
28 4 1086 -1089 0
-1086 -8 1087 1090 0
-1086 -8 1087 -1090 0
-1087 21 1088 1091 0
-1087 21 1088 -1091 0
-1088 33 -18 1092 0
-1088 33 -18 -1092 0
-9 -6 -16 -7 0
7 22 1093 1096 0
7 22 1093 -1096 0
-1093 -19 1094 1097 0
-1093 -19 1094 -1097 0
-1094 -25 1095 1098 0
-1094 -25 1095 -1098 0
-1095 -14 1 1099 0
-1095 -14 1 -1099 0
12 36 1100 1104 0
12 36 1100 -1104 0
-1100 13 1101 1105 0
-1100 13 1101 -1105 0
-1101 -32 1102 1106 0
-1101 -32 1102 -1106 0
-1102 34 1103 1107 0
-1102 34 1103 -1107 0
-1103 5 1 1108 0
-1103 5 1 -1108 0
-20 -16 34 -14 0
32 13 1109 1113 0
32 13 1109 -1113 0
-1109 -34 1110 1114 0
-1109 -34 1110 -1114 0
-1110 -5 1111 1115 0
-1110 -5 1111 -1115 0
-1111 -36 1112 1116 0
-1111 -36 1112 -1116 0
-1112 -12 -1 1117 0
-1112 -12 -1 -1117 0
-10 -11 1118 1120 0
-10 -11 1118 -1120 0
-1118 -9 1119 1121 0
-1118 -9 1119 -1121 0
-1119 19 -8 1122 0
-1119 19 -8 -1122 0
-6 9 16 -7 0
-23 13 1123 1125 0
-23 13 1123 -1125 0
-1123 -26 1124 1126 0
-1123 -26 1124 -1126 0
-1124 2 -4 1127 0
-1124 2 -4 -1127 0
-12 -32 1128 1132 0
-12 -32 1128 -1132 0
-1128 -34 1129 1133 0
-1128 -34 1129 -1133 0
-1129 36 1130 1134 0
-1129 36 1130 -1134 0
-1130 -13 1131 1135 0
-1130 -13 1131 -1135 0
-1131 5 -1 1136 0
-1131 5 -1 -1136 0
-13 -32 1137 1141 0
-13 -32 1137 -1141 0
-1137 36 1138 1142 0
-1137 36 1138 -1142 0
-1138 -5 1139 1143 0
-1138 -5 1139 -1143 0
-1139 -34 1140 1144 0
-1139 -34 1140 -1144 0
-1140 1 -12 1145 0
-1140 1 -12 -1145 0
-7 -25 1146 1149 0
-7 -25 1146 -1149 0
-1146 19 1147 1150 0
-1146 19 1147 -1150 0
-1147 -22 1148 1151 0
-1147 -22 1148 -1151 0
-1148 1 14 1152 0
-1148 1 14 -1152 0
-9 19 1153 1155 0
-9 19 1153 -1155 0
-1153 8 1154 1156 0
-1153 8 1154 -1156 0
-1154 11 -10 1157 0
-1154 11 -10 -1157 0
-27 2 24 3 0
36 -32 1158 1162 0
36 -32 1158 -1162 0
-1158 -1 1159 1163 0
-1158 -1 1159 -1163 0
-1159 34 1160 1164 0
-1159 34 1160 -1164 0
-1160 13 1161 1165 0
-1160 13 1161 -1165 0
-1161 -12 5 1166 0
-1161 -12 5 -1166 0
1 22 1167 1170 0
1 22 1167 -1170 0
-1167 14 1168 1171 0
-1167 14 1168 -1171 0
-1168 25 1169 1172 0
-1168 25 1169 -1172 0
-1169 -19 7 1173 0
-1169 -19 7 -1173 0
33 8 1174 1177 0
33 8 1174 -1177 0
-1174 4 1175 1178 0
-1174 4 1175 -1178 0
-1175 18 1176 1179 0
-1175 18 1176 -1179 0
-1176 -21 -28 1180 0
-1176 -21 -28 -1180 0
20 -25 -30 28 0
2 26 1181 1183 0
2 26 1181 -1183 0
-1181 4 1182 1184 0
-1181 4 1182 -1184 0
-1182 -23 13 1185 0
-1182 -23 13 -1185 0
-10 11 1186 1188 0
-10 11 1186 -1188 0
-1186 8 1187 1189 0
-1186 8 1187 -1189 0
-1187 -19 9 1190 0
-1187 -19 9 -1190 0
10 -15 27 -32 0
4 -23 1191 1193 0
4 -23 1191 -1193 0
-1191 26 1192 1194 0
-1191 26 1192 -1194 0
-1192 -13 -2 1195 0
-1192 -13 -2 -1195 0
-15 -10 32 27 0
-28 -20 -25 -30 0
-22 -24 -21 1196 0
-22 -24 -21 -1196 0
-19 10 1197 1199 0
-19 10 1197 -1199 0
-1197 11 1198 1200 0
-1197 11 1198 -1200 0
-1198 8 -9 1201 0
-1198 8 -9 -1201 0
14 -22 1202 1205 0
14 -22 1202 -1205 0
-1202 25 1203 1206 0
-1202 25 1203 -1206 0
-1203 -19 1204 1207 0
-1203 -19 1204 -1207 0
-1204 1 -7 1208 0
-1204 1 -7 -1208 0
-1 -19 1209 1212 0
-1 -19 1209 -1212 0
-1209 14 1210 1213 0
-1209 14 1210 -1213 0
-1210 7 1211 1214 0
-1210 7 1211 -1214 0
-1211 -22 25 1215 0
-1211 -22 25 -1215 0
13 -34 1216 1220 0
13 -34 1216 -1220 0
-1216 5 1217 1221 0
-1216 5 1217 -1221 0
-1217 -1 1218 1222 0
-1217 -1 1218 -1222 0
-1218 -12 1219 1223 0
-1218 -12 1219 -1223 0
-1219 -32 -36 1224 0
-1219 -32 -36 -1224 0
-28 25 -30 20 0
36 13 1225 1229 0
36 13 1225 -1229 0
-1225 34 1226 1230 0
-1225 34 1226 -1230 0
-1226 -32 1227 1231 0
-1226 -32 1227 -1231 0
-1227 -1 1228 1232 0
-1227 -1 1228 -1232 0
-1228 -5 12 1233 0
-1228 -5 12 -1233 0
-26 -2 1234 1236 0
-26 -2 1234 -1236 0
-1234 -23 1235 1237 0
-1234 -23 1235 -1237 0
-1235 -13 -4 1238 0
-1235 -13 -4 -1238 0
19 14 1239 1242 0
19 14 1239 -1242 0
-1239 -7 1240 1243 0
-1239 -7 1240 -1243 0
-1240 25 1241 1244 0
-1240 25 1241 -1244 0
-1241 22 1 1245 0
-1241 22 1 -1245 0
-12 -34 1246 1250 0
-12 -34 1246 -1250 0
-1246 -36 1247 1251 0
-1246 -36 1247 -1251 0
-1247 -1 1248 1252 0
-1247 -1 1248 -1252 0
-1248 32 1249 1253 0
-1248 32 1249 -1253 0
-1249 5 -13 1254 0
-1249 5 -13 -1254 0

